%chk=C:\Users\HungPham\Desktop\ME2N2.chk
# hf/3-21g

This structure was optimized at the level of 

0 1
 N              
 N                  1    B
 C                  2    1.46715970    1  112.46991821
 H                  3    1.09536541    2  107.99239675    1  122.22799626    0
 H                  3    1.09535573    2  107.99174863    1 -122.19493958    0
 H                  3    1.09508075    2  112.47192917    1    0.01821875    0
 C                  1    1.46720787    2  112.47222084    3  179.99028022    0
 H                  7    1.09539460    1  107.99389105    2  122.25781283    0
 H                  7    1.09532368    1  107.99256090    2 -122.16273046    0
 H                  7    1.09506916    1  112.46612427    2    0.06117349    0

B 1.24414799

